; Options: -in -smt2
(set-option :produce-unsat-assumptions true)

(declare-fun start!625 () Bool)

(assert start!625)

(declare-datatypes ((Unit!83 0))(
  ( (Unit!84) )
))
(declare-datatypes ((array!65 0))(
  ( (array!66 (arr!29 (Array (_ BitVec 32) (_ BitVec 32))) (size!29 (_ BitVec 32))) )
))
(declare-datatypes ((tuple4!34 0))(
  ( (tuple4!35 (_1!60 Unit!83) (_2!60 (_ BitVec 32)) (_3!48 array!65) (_4!17 (_ BitVec 32))) )
))
(declare-fun e!816 () tuple4!34)

(declare-fun lt!1134 () (_ BitVec 32))

(declare-datatypes ((tuple4!36 0))(
  ( (tuple4!37 (_1!61 Unit!83) (_2!61 array!65) (_3!49 (_ BitVec 32)) (_4!18 (_ FloatingPoint 11 53))) )
))
(declare-fun lt!1132 () tuple4!36)

(declare-fun b!1449 () Bool)

(declare-fun lt!1133 () (_ BitVec 32))

(declare-fun Unit!85 () Unit!83)

(assert (=> b!1449 (= e!816 (tuple4!35 Unit!85 lt!1134 (_2!61 lt!1132) lt!1133))))

(declare-fun b!1450 () Bool)

(declare-fun res!1267 () Bool)

(declare-fun e!819 () Bool)

(assert (=> b!1450 (=> (not res!1267) (not e!819))))

(declare-datatypes ((array!67 0))(
  ( (array!68 (arr!30 (Array (_ BitVec 32) (_ FloatingPoint 11 53))) (size!30 (_ BitVec 32))) )
))
(declare-fun q!70 () array!67)

(declare-fun qInv!0 (array!67) Bool)

(assert (=> b!1450 (= res!1267 (qInv!0 q!70))))

(declare-fun b!1451 () Bool)

(declare-fun e!817 () Bool)

(declare-fun e!813 () Bool)

(assert (=> b!1451 (= e!817 e!813)))

(declare-fun res!1265 () Bool)

(assert (=> b!1451 (=> (not res!1265) (not e!813))))

(declare-datatypes ((tuple3!62 0))(
  ( (tuple3!63 (_1!62 Unit!83) (_2!62 array!65) (_3!50 (_ BitVec 32))) )
))
(declare-fun lt!1128 () tuple3!62)

(declare-fun jz!42 () (_ BitVec 32))

(assert (=> b!1451 (= res!1265 (and (bvsle #b00000000000000000000000000000000 (select (arr!29 (_2!62 lt!1128)) (bvsub jz!42 #b00000000000000000000000000000001))) (bvsle (select (arr!29 (_2!62 lt!1128)) (bvsub jz!42 #b00000000000000000000000000000001)) #b00000000100000000000000000000000)))))

(declare-fun e!814 () tuple3!62)

(assert (=> b!1451 (= lt!1128 e!814)))

(declare-fun c!301 () Bool)

(declare-fun lt!1125 () Bool)

(assert (=> b!1451 (= c!301 lt!1125)))

(assert (=> b!1451 (= lt!1133 #b00000000000000000000000000000000)))

(assert (=> b!1451 (= lt!1125 (bvsge (select (arr!29 (_2!61 lt!1132)) (bvsub jz!42 #b00000000000000000000000000000001)) #b00000000100000000000000000000000))))

(declare-fun b!1452 () Bool)

(assert (=> b!1452 (= e!813 (and (or (not lt!1125) (not (= (_3!50 lt!1128) #b00000000000000000000000000000000)) (not (= (select (arr!29 (_2!62 lt!1128)) (bvsub jz!42 #b00000000000000000000000000000001)) #b00000000100000000000000000000000))) (bvsgt (select (arr!29 (_2!62 lt!1128)) (bvsub jz!42 #b00000000000000000000000000000001)) #b00000000011111111111111111111111)))))

(declare-fun b!1453 () Bool)

(declare-fun computeModuloWhile!1 ((_ BitVec 32) array!67 (_ BitVec 32) array!65 (_ BitVec 32)) tuple4!34)

(assert (=> b!1453 (= e!816 (computeModuloWhile!1 jz!42 q!70 lt!1134 (_2!61 lt!1132) lt!1133))))

(declare-fun e!818 () tuple4!36)

(declare-fun lt!1131 () (_ FloatingPoint 11 53))

(declare-fun lt!1130 () array!65)

(declare-fun b!1454 () Bool)

(declare-fun Unit!86 () Unit!83)

(assert (=> b!1454 (= e!818 (tuple4!37 Unit!86 lt!1130 jz!42 lt!1131))))

(declare-fun b!1455 () Bool)

(declare-fun Unit!87 () Unit!83)

(assert (=> b!1455 (= e!814 (tuple3!63 Unit!87 (_2!61 lt!1132) lt!1133))))

(declare-fun b!1456 () Bool)

(assert (=> b!1456 (= e!819 e!817)))

(declare-fun res!1266 () Bool)

(assert (=> b!1456 (=> (not res!1266) (not e!817))))

(declare-fun lt!1127 () (_ FloatingPoint 11 53))

(assert (=> b!1456 (= res!1266 (and (fp.leq (fp #b0 #b00000000000 #b0000000000000000000000000000000000000000000000000000) lt!1127) (fp.lt lt!1127 (fp #b0 #b10000000010 #b0000000000000000000000000000000000000000000000000000))))))

(assert (=> b!1456 (= lt!1127 (fp.sub roundNearestTiesToEven (_4!18 lt!1132) (fp.mul roundNearestTiesToEven (fp #b0 #b10000000010 #b0000000000000000000000000000000000000000000000000000) ((_ to_fp 11 53) roundNearestTiesToEven (ite (fp.isNaN (fp.mul roundNearestTiesToEven (_4!18 lt!1132) (fp #b0 #b01111111100 #b0000000000000000000000000000000000000000000000000000))) #b0000000000000000000000000000000000000000000000000000000000000000 (ite (fp.gt (fp.mul roundNearestTiesToEven (_4!18 lt!1132) (fp #b0 #b01111111100 #b0000000000000000000000000000000000000000000000000000)) ((_ to_fp 11 53) roundTowardZero #b0111111111111111111111111111111111111111111111111111111111111111)) #b0111111111111111111111111111111111111111111111111111111111111111 (ite (fp.lt (fp.mul roundNearestTiesToEven (_4!18 lt!1132) (fp #b0 #b01111111100 #b0000000000000000000000000000000000000000000000000000)) ((_ to_fp 11 53) roundTowardZero #b1000000000000000000000000000000000000000000000000000000000000000)) #b1000000000000000000000000000000000000000000000000000000000000000 ((_ fp.to_sbv 64) roundTowardZero (fp.mul roundNearestTiesToEven (_4!18 lt!1132) (fp #b0 #b01111111100 #b0000000000000000000000000000000000000000000000000000))))))))))))

(assert (=> b!1456 (= lt!1132 e!818)))

(declare-fun c!300 () Bool)

(assert (=> b!1456 (= c!300 (bvsgt jz!42 #b00000000000000000000000000000000))))

(assert (=> b!1456 (= lt!1131 (select (arr!30 q!70) jz!42))))

(assert (=> b!1456 (= lt!1130 (array!66 ((as const (Array (_ BitVec 32) (_ BitVec 32))) #b00000000000000000000000000000000) #b00000000000000000000000000010100))))

(declare-fun lt!1126 () tuple4!34)

(declare-fun b!1457 () Bool)

(declare-fun lt!1129 () (_ BitVec 32))

(declare-fun Unit!88 () Unit!83)

(assert (=> b!1457 (= e!814 (tuple3!63 Unit!88 (array!66 (store (arr!29 (_3!48 lt!1126)) (bvsub jz!42 #b00000000000000000000000000000001) (ite (= (_4!17 lt!1126) #b00000000000000000000000000000000) (bvsub #b00000001000000000000000000000000 lt!1129) (bvsub #b00000000111111111111111111111111 lt!1129))) (size!29 (_3!48 lt!1126))) (_4!17 lt!1126)))))

(assert (=> b!1457 (= lt!1134 #b00000000000000000000000000000000)))

(declare-fun c!299 () Bool)

(assert (=> b!1457 (= c!299 (bvslt lt!1134 (bvsub jz!42 #b00000000000000000000000000000001)))))

(assert (=> b!1457 (= lt!1126 e!816)))

(assert (=> b!1457 (= lt!1129 (select (arr!29 (_3!48 lt!1126)) (bvsub jz!42 #b00000000000000000000000000000001)))))

(declare-fun b!1458 () Bool)

(declare-fun res!1268 () Bool)

(assert (=> b!1458 (=> (not res!1268) (not e!813))))

(declare-fun qqInv!0 (array!67) Bool)

(assert (=> b!1458 (= res!1268 (qqInv!0 (array!68 ((as const (Array (_ BitVec 32) (_ FloatingPoint 11 53))) (fp #b0 #b00000000000 #b0000000000000000000000000000000000000000000000000000)) #b00000000000000000000000000010100)))))

(declare-fun b!1459 () Bool)

(declare-fun computeModuloWhile!0 ((_ BitVec 32) array!67 array!65 (_ BitVec 32) (_ FloatingPoint 11 53)) tuple4!36)

(assert (=> b!1459 (= e!818 (computeModuloWhile!0 jz!42 q!70 lt!1130 jz!42 lt!1131))))

(declare-fun res!1264 () Bool)

(assert (=> start!625 (=> (not res!1264) (not e!819))))

(assert (=> start!625 (= res!1264 (and (bvsle #b00000000000000000000000000000010 jz!42) (bvslt jz!42 #b00000000000000000000000000010011)))))

(assert (=> start!625 e!819))

(assert (=> start!625 true))

(declare-fun array_inv!10 (array!67) Bool)

(assert (=> start!625 (array_inv!10 q!70)))

(assert (= (and start!625 res!1264) b!1450))

(assert (= (and b!1450 res!1267) b!1456))

(assert (= (and b!1456 c!300) b!1459))

(assert (= (and b!1456 (not c!300)) b!1454))

(assert (= (and b!1456 res!1266) b!1451))

(assert (= (and b!1451 c!301) b!1457))

(assert (= (and b!1451 (not c!301)) b!1455))

(assert (= (and b!1457 c!299) b!1453))

(assert (= (and b!1457 (not c!299)) b!1449))

(assert (= (and b!1451 res!1265) b!1458))

(assert (= (and b!1458 res!1268) b!1452))

(declare-fun m!1737 () Bool)

(assert (=> b!1459 m!1737))

(declare-fun m!1739 () Bool)

(assert (=> b!1452 m!1739))

(assert (=> b!1451 m!1739))

(declare-fun m!1741 () Bool)

(assert (=> b!1451 m!1741))

(declare-fun m!1743 () Bool)

(assert (=> b!1456 m!1743))

(declare-fun m!1745 () Bool)

(assert (=> b!1450 m!1745))

(declare-fun m!1747 () Bool)

(assert (=> b!1457 m!1747))

(declare-fun m!1749 () Bool)

(assert (=> b!1457 m!1749))

(declare-fun m!1751 () Bool)

(assert (=> b!1453 m!1751))

(declare-fun m!1753 () Bool)

(assert (=> b!1458 m!1753))

(declare-fun m!1755 () Bool)

(assert (=> start!625 m!1755))

(check-sat (not b!1450) (not b!1458) (not b!1453) (not b!1459) (not start!625))
(check-sat)
(get-model)

(declare-fun d!809 () Bool)

(assert (=> d!809 (= (qqInv!0 (array!68 ((as const (Array (_ BitVec 32) (_ FloatingPoint 11 53))) (fp #b0 #b00000000000 #b0000000000000000000000000000000000000000000000000000)) #b00000000000000000000000000010100)) (and (= (size!30 (array!68 ((as const (Array (_ BitVec 32) (_ FloatingPoint 11 53))) (fp #b0 #b00000000000 #b0000000000000000000000000000000000000000000000000000)) #b00000000000000000000000000010100)) #b00000000000000000000000000010100) (fp.leq (fp #b0 #b00000000000 #b0000000000000000000000000000000000000000000000000000) (select (arr!30 (array!68 ((as const (Array (_ BitVec 32) (_ FloatingPoint 11 53))) (fp #b0 #b00000000000 #b0000000000000000000000000000000000000000000000000000)) #b00000000000000000000000000010100)) #b00000000000000000000000000000000)) (fp.leq (select (arr!30 (array!68 ((as const (Array (_ BitVec 32) (_ FloatingPoint 11 53))) (fp #b0 #b00000000000 #b0000000000000000000000000000000000000000000000000000)) #b00000000000000000000000000010100)) #b00000000000000000000000000000000) (fp #b0 #b01111111101 #b1111111111111111111111000000000000000000000000000000)) (fp.leq (fp #b0 #b00000000000 #b0000000000000000000000000000000000000000000000000000) (select (arr!30 (array!68 ((as const (Array (_ BitVec 32) (_ FloatingPoint 11 53))) (fp #b0 #b00000000000 #b0000000000000000000000000000000000000000000000000000)) #b00000000000000000000000000010100)) #b00000000000000000000000000000001)) (fp.leq (select (arr!30 (array!68 ((as const (Array (_ BitVec 32) (_ FloatingPoint 11 53))) (fp #b0 #b00000000000 #b0000000000000000000000000000000000000000000000000000)) #b00000000000000000000000000010100)) #b00000000000000000000000000000001) (fp #b0 #b01111100110 #b1111111111111111111111100000000000000000000000000000)) (fp.leq (fp #b0 #b00000000000 #b0000000000000000000000000000000000000000000000000000) (select (arr!30 (array!68 ((as const (Array (_ BitVec 32) (_ FloatingPoint 11 53))) (fp #b0 #b00000000000 #b0000000000000000000000000000000000000000000000000000)) #b00000000000000000000000000010100)) #b00000000000000000000000000000010)) (fp.leq (select (arr!30 (array!68 ((as const (Array (_ BitVec 32) (_ FloatingPoint 11 53))) (fp #b0 #b00000000000 #b0000000000000000000000000000000000000000000000000000)) #b00000000000000000000000000010100)) #b00000000000000000000000000000010) (fp #b0 #b01111001110 #b1111111111111111111111100000000000000000000000000000)) (fp.leq (fp #b0 #b00000000000 #b0000000000000000000000000000000000000000000000000000) (select (arr!30 (array!68 ((as const (Array (_ BitVec 32) (_ FloatingPoint 11 53))) (fp #b0 #b00000000000 #b0000000000000000000000000000000000000000000000000000)) #b00000000000000000000000000010100)) #b00000000000000000000000000000011)) (fp.leq (select (arr!30 (array!68 ((as const (Array (_ BitVec 32) (_ FloatingPoint 11 53))) (fp #b0 #b00000000000 #b0000000000000000000000000000000000000000000000000000)) #b00000000000000000000000000010100)) #b00000000000000000000000000000011) (fp #b0 #b01110110110 #b1111111111111111111111100000000000000000000000000000)) (fp.leq (fp #b0 #b00000000000 #b0000000000000000000000000000000000000000000000000000) (select (arr!30 (array!68 ((as const (Array (_ BitVec 32) (_ FloatingPoint 11 53))) (fp #b0 #b00000000000 #b0000000000000000000000000000000000000000000000000000)) #b00000000000000000000000000010100)) #b00000000000000000000000000000100)) (fp.leq (select (arr!30 (array!68 ((as const (Array (_ BitVec 32) (_ FloatingPoint 11 53))) (fp #b0 #b00000000000 #b0000000000000000000000000000000000000000000000000000)) #b00000000000000000000000000010100)) #b00000000000000000000000000000100) (fp #b0 #b01110011110 #b1111111111111111111111100000000000000000000000000000)) (fp.leq (fp #b0 #b00000000000 #b0000000000000000000000000000000000000000000000000000) (select (arr!30 (array!68 ((as const (Array (_ BitVec 32) (_ FloatingPoint 11 53))) (fp #b0 #b00000000000 #b0000000000000000000000000000000000000000000000000000)) #b00000000000000000000000000010100)) #b00000000000000000000000000000101)) (fp.leq (select (arr!30 (array!68 ((as const (Array (_ BitVec 32) (_ FloatingPoint 11 53))) (fp #b0 #b00000000000 #b0000000000000000000000000000000000000000000000000000)) #b00000000000000000000000000010100)) #b00000000000000000000000000000101) (fp #b0 #b01110000110 #b1111111111111111111111100000000000000000000000000000)) (fp.leq (fp #b0 #b00000000000 #b0000000000000000000000000000000000000000000000000000) (select (arr!30 (array!68 ((as const (Array (_ BitVec 32) (_ FloatingPoint 11 53))) (fp #b0 #b00000000000 #b0000000000000000000000000000000000000000000000000000)) #b00000000000000000000000000010100)) #b00000000000000000000000000000110)) (fp.leq (select (arr!30 (array!68 ((as const (Array (_ BitVec 32) (_ FloatingPoint 11 53))) (fp #b0 #b00000000000 #b0000000000000000000000000000000000000000000000000000)) #b00000000000000000000000000010100)) #b00000000000000000000000000000110) (fp #b0 #b01101101110 #b1111111111111111111111100000000000000000000000000000)) (fp.leq (fp #b0 #b00000000000 #b0000000000000000000000000000000000000000000000000000) (select (arr!30 (array!68 ((as const (Array (_ BitVec 32) (_ FloatingPoint 11 53))) (fp #b0 #b00000000000 #b0000000000000000000000000000000000000000000000000000)) #b00000000000000000000000000010100)) #b00000000000000000000000000000111)) (fp.leq (select (arr!30 (array!68 ((as const (Array (_ BitVec 32) (_ FloatingPoint 11 53))) (fp #b0 #b00000000000 #b0000000000000000000000000000000000000000000000000000)) #b00000000000000000000000000010100)) #b00000000000000000000000000000111) (fp #b0 #b01101010110 #b1111111111111111111111100000000000000000000000000000)) (fp.leq (fp #b0 #b00000000000 #b0000000000000000000000000000000000000000000000000000) (select (arr!30 (array!68 ((as const (Array (_ BitVec 32) (_ FloatingPoint 11 53))) (fp #b0 #b00000000000 #b0000000000000000000000000000000000000000000000000000)) #b00000000000000000000000000010100)) #b00000000000000000000000000001000)) (fp.leq (select (arr!30 (array!68 ((as const (Array (_ BitVec 32) (_ FloatingPoint 11 53))) (fp #b0 #b00000000000 #b0000000000000000000000000000000000000000000000000000)) #b00000000000000000000000000010100)) #b00000000000000000000000000001000) (fp #b0 #b01100111110 #b1111111111111111111111100000000000000000000000000000)) (fp.leq (fp #b0 #b00000000000 #b0000000000000000000000000000000000000000000000000000) (select (arr!30 (array!68 ((as const (Array (_ BitVec 32) (_ FloatingPoint 11 53))) (fp #b0 #b00000000000 #b0000000000000000000000000000000000000000000000000000)) #b00000000000000000000000000010100)) #b00000000000000000000000000001001)) (fp.leq (select (arr!30 (array!68 ((as const (Array (_ BitVec 32) (_ FloatingPoint 11 53))) (fp #b0 #b00000000000 #b0000000000000000000000000000000000000000000000000000)) #b00000000000000000000000000010100)) #b00000000000000000000000000001001) (fp #b0 #b01100100110 #b1111111111111111111111100000000000000000000000000000)) (fp.leq (fp #b0 #b00000000000 #b0000000000000000000000000000000000000000000000000000) (select (arr!30 (array!68 ((as const (Array (_ BitVec 32) (_ FloatingPoint 11 53))) (fp #b0 #b00000000000 #b0000000000000000000000000000000000000000000000000000)) #b00000000000000000000000000010100)) #b00000000000000000000000000001010)) (fp.leq (select (arr!30 (array!68 ((as const (Array (_ BitVec 32) (_ FloatingPoint 11 53))) (fp #b0 #b00000000000 #b0000000000000000000000000000000000000000000000000000)) #b00000000000000000000000000010100)) #b00000000000000000000000000001010) (fp #b0 #b01100001110 #b1111111111111111111111100000000000000000000000000000)) (fp.leq (fp #b0 #b00000000000 #b0000000000000000000000000000000000000000000000000000) (select (arr!30 (array!68 ((as const (Array (_ BitVec 32) (_ FloatingPoint 11 53))) (fp #b0 #b00000000000 #b0000000000000000000000000000000000000000000000000000)) #b00000000000000000000000000010100)) #b00000000000000000000000000001011)) (fp.leq (select (arr!30 (array!68 ((as const (Array (_ BitVec 32) (_ FloatingPoint 11 53))) (fp #b0 #b00000000000 #b0000000000000000000000000000000000000000000000000000)) #b00000000000000000000000000010100)) #b00000000000000000000000000001011) (fp #b0 #b01011110110 #b1111111111111111111111100000000000000000000000000000)) (fp.leq (fp #b0 #b00000000000 #b0000000000000000000000000000000000000000000000000000) (select (arr!30 (array!68 ((as const (Array (_ BitVec 32) (_ FloatingPoint 11 53))) (fp #b0 #b00000000000 #b0000000000000000000000000000000000000000000000000000)) #b00000000000000000000000000010100)) #b00000000000000000000000000001100)) (fp.leq (select (arr!30 (array!68 ((as const (Array (_ BitVec 32) (_ FloatingPoint 11 53))) (fp #b0 #b00000000000 #b0000000000000000000000000000000000000000000000000000)) #b00000000000000000000000000010100)) #b00000000000000000000000000001100) (fp #b0 #b01011011110 #b1111111111111111111111100000000000000000000000000000)) (fp.leq (fp #b0 #b00000000000 #b0000000000000000000000000000000000000000000000000000) (select (arr!30 (array!68 ((as const (Array (_ BitVec 32) (_ FloatingPoint 11 53))) (fp #b0 #b00000000000 #b0000000000000000000000000000000000000000000000000000)) #b00000000000000000000000000010100)) #b00000000000000000000000000001101)) (fp.leq (select (arr!30 (array!68 ((as const (Array (_ BitVec 32) (_ FloatingPoint 11 53))) (fp #b0 #b00000000000 #b0000000000000000000000000000000000000000000000000000)) #b00000000000000000000000000010100)) #b00000000000000000000000000001101) (fp #b0 #b01011000110 #b1111111111111111111111100000000000000000000000000000)) (fp.leq (fp #b0 #b00000000000 #b0000000000000000000000000000000000000000000000000000) (select (arr!30 (array!68 ((as const (Array (_ BitVec 32) (_ FloatingPoint 11 53))) (fp #b0 #b00000000000 #b0000000000000000000000000000000000000000000000000000)) #b00000000000000000000000000010100)) #b00000000000000000000000000001110)) (fp.leq (select (arr!30 (array!68 ((as const (Array (_ BitVec 32) (_ FloatingPoint 11 53))) (fp #b0 #b00000000000 #b0000000000000000000000000000000000000000000000000000)) #b00000000000000000000000000010100)) #b00000000000000000000000000001110) (fp #b0 #b01010101110 #b1111111111111111111111100000000000000000000000000000)) (fp.leq (fp #b0 #b00000000000 #b0000000000000000000000000000000000000000000000000000) (select (arr!30 (array!68 ((as const (Array (_ BitVec 32) (_ FloatingPoint 11 53))) (fp #b0 #b00000000000 #b0000000000000000000000000000000000000000000000000000)) #b00000000000000000000000000010100)) #b00000000000000000000000000001111)) (fp.leq (select (arr!30 (array!68 ((as const (Array (_ BitVec 32) (_ FloatingPoint 11 53))) (fp #b0 #b00000000000 #b0000000000000000000000000000000000000000000000000000)) #b00000000000000000000000000010100)) #b00000000000000000000000000001111) (fp #b0 #b01010010110 #b1111111111111111111111100000000000000000000000000000)) (fp.leq (fp #b0 #b00000000000 #b0000000000000000000000000000000000000000000000000000) (select (arr!30 (array!68 ((as const (Array (_ BitVec 32) (_ FloatingPoint 11 53))) (fp #b0 #b00000000000 #b0000000000000000000000000000000000000000000000000000)) #b00000000000000000000000000010100)) #b00000000000000000000000000010000)) (fp.leq (select (arr!30 (array!68 ((as const (Array (_ BitVec 32) (_ FloatingPoint 11 53))) (fp #b0 #b00000000000 #b0000000000000000000000000000000000000000000000000000)) #b00000000000000000000000000010100)) #b00000000000000000000000000010000) (fp #b0 #b01001111110 #b1111111111111111111111100000000000000000000000000000)) (fp.leq (fp #b0 #b00000000000 #b0000000000000000000000000000000000000000000000000000) (select (arr!30 (array!68 ((as const (Array (_ BitVec 32) (_ FloatingPoint 11 53))) (fp #b0 #b00000000000 #b0000000000000000000000000000000000000000000000000000)) #b00000000000000000000000000010100)) #b00000000000000000000000000010001)) (fp.leq (select (arr!30 (array!68 ((as const (Array (_ BitVec 32) (_ FloatingPoint 11 53))) (fp #b0 #b00000000000 #b0000000000000000000000000000000000000000000000000000)) #b00000000000000000000000000010100)) #b00000000000000000000000000010001) (fp #b0 #b01001100110 #b1111111111111111111111100000000000000000000000000000)) (fp.leq (fp #b0 #b00000000000 #b0000000000000000000000000000000000000000000000000000) (select (arr!30 (array!68 ((as const (Array (_ BitVec 32) (_ FloatingPoint 11 53))) (fp #b0 #b00000000000 #b0000000000000000000000000000000000000000000000000000)) #b00000000000000000000000000010100)) #b00000000000000000000000000010010)) (fp.leq (select (arr!30 (array!68 ((as const (Array (_ BitVec 32) (_ FloatingPoint 11 53))) (fp #b0 #b00000000000 #b0000000000000000000000000000000000000000000000000000)) #b00000000000000000000000000010100)) #b00000000000000000000000000010010) (fp #b0 #b01001001110 #b1111111111111111111111100000000000000000000000000000)) (fp.leq (fp #b0 #b00000000000 #b0000000000000000000000000000000000000000000000000000) (select (arr!30 (array!68 ((as const (Array (_ BitVec 32) (_ FloatingPoint 11 53))) (fp #b0 #b00000000000 #b0000000000000000000000000000000000000000000000000000)) #b00000000000000000000000000010100)) #b00000000000000000000000000010011)) (fp.leq (select (arr!30 (array!68 ((as const (Array (_ BitVec 32) (_ FloatingPoint 11 53))) (fp #b0 #b00000000000 #b0000000000000000000000000000000000000000000000000000)) #b00000000000000000000000000010100)) #b00000000000000000000000000010011) (fp #b0 #b01000110110 #b1111111111111111111111100000000000000000000000000000))))))

(declare-fun bs!308 () Bool)

(assert (= bs!308 d!809))

(declare-fun m!1757 () Bool)

(assert (=> bs!308 m!1757))

(declare-fun m!1759 () Bool)

(assert (=> bs!308 m!1759))

(declare-fun m!1761 () Bool)

(assert (=> bs!308 m!1761))

(declare-fun m!1763 () Bool)

(assert (=> bs!308 m!1763))

(declare-fun m!1765 () Bool)

(assert (=> bs!308 m!1765))

(declare-fun m!1767 () Bool)

(assert (=> bs!308 m!1767))

(declare-fun m!1769 () Bool)

(assert (=> bs!308 m!1769))

(declare-fun m!1771 () Bool)

(assert (=> bs!308 m!1771))

(declare-fun m!1773 () Bool)

(assert (=> bs!308 m!1773))

(declare-fun m!1775 () Bool)

(assert (=> bs!308 m!1775))

(declare-fun m!1777 () Bool)

(assert (=> bs!308 m!1777))

(declare-fun m!1779 () Bool)

(assert (=> bs!308 m!1779))

(declare-fun m!1781 () Bool)

(assert (=> bs!308 m!1781))

(declare-fun m!1783 () Bool)

(assert (=> bs!308 m!1783))

(declare-fun m!1785 () Bool)

(assert (=> bs!308 m!1785))

(declare-fun m!1787 () Bool)

(assert (=> bs!308 m!1787))

(declare-fun m!1789 () Bool)

(assert (=> bs!308 m!1789))

(declare-fun m!1791 () Bool)

(assert (=> bs!308 m!1791))

(declare-fun m!1793 () Bool)

(assert (=> bs!308 m!1793))

(declare-fun m!1795 () Bool)

(assert (=> bs!308 m!1795))

(assert (=> b!1458 d!809))

(declare-fun b!1480 () Bool)

(declare-fun res!1285 () Bool)

(declare-fun e!830 () Bool)

(assert (=> b!1480 (=> (not res!1285) (not e!830))))

(declare-fun lt!1158 () tuple4!34)

(declare-fun iqInv!0 (array!65) Bool)

(assert (=> b!1480 (= res!1285 (iqInv!0 (_3!48 lt!1158)))))

(declare-fun lt!1159 () array!65)

(declare-fun b!1481 () Bool)

(declare-fun e!828 () tuple4!36)

(declare-fun lt!1156 () (_ FloatingPoint 11 53))

(assert (=> b!1481 (= e!828 (computeModuloWhile!0 jz!42 q!70 lt!1159 jz!42 lt!1156))))

(declare-fun b!1482 () Bool)

(declare-fun res!1281 () Bool)

(assert (=> b!1482 (=> (not res!1281) (not e!830))))

(declare-fun lt!1155 () (_ BitVec 32))

(assert (=> b!1482 (= res!1281 (bvsge (select (arr!29 (_3!48 lt!1158)) lt!1155) #b00000000100000000000000000000000))))

(assert (=> b!1482 (and (bvsge lt!1155 #b00000000000000000000000000000000) (bvslt lt!1155 (size!29 (_3!48 lt!1158))))))

(assert (=> b!1482 (= lt!1155 (bvsub jz!42 #b00000000000000000000000000000001))))

(assert (=> b!1482 (or (= (bvand jz!42 #b10000000000000000000000000000000) #b00000000000000000000000000000000) (= (bvand jz!42 #b10000000000000000000000000000000) (bvand (bvsub jz!42 #b00000000000000000000000000000001) #b10000000000000000000000000000000)))))

(declare-fun b!1483 () Bool)

(declare-fun res!1286 () Bool)

(declare-fun e!831 () Bool)

(assert (=> b!1483 (=> (not res!1286) (not e!831))))

(assert (=> b!1483 (= res!1286 (iqInv!0 (_2!61 lt!1132)))))

(declare-fun b!1484 () Bool)

(assert (=> b!1484 (= e!830 (bvsge (_2!60 lt!1158) (bvsub jz!42 #b00000000000000000000000000000001)))))

(assert (=> b!1484 (or (= (bvand jz!42 #b10000000000000000000000000000000) #b00000000000000000000000000000000) (= (bvand jz!42 #b10000000000000000000000000000000) (bvand (bvsub jz!42 #b00000000000000000000000000000001) #b10000000000000000000000000000000)))))

(declare-fun lt!1154 () array!65)

(declare-fun e!829 () tuple4!34)

(declare-fun b!1485 () Bool)

(declare-fun lt!1157 () (_ BitVec 32))

(declare-fun lt!1153 () (_ BitVec 32))

(declare-fun Unit!89 () Unit!83)

(assert (=> b!1485 (= e!829 (tuple4!35 Unit!89 lt!1157 lt!1154 lt!1153))))

(declare-fun b!1486 () Bool)

(declare-fun Unit!90 () Unit!83)

(assert (=> b!1486 (= e!828 (tuple4!37 Unit!90 lt!1159 jz!42 lt!1156))))

(declare-fun b!1487 () Bool)

(declare-fun res!1284 () Bool)

(assert (=> b!1487 (=> (not res!1284) (not e!830))))

(assert (=> b!1487 (= res!1284 (or (= (_4!17 lt!1158) #b00000000000000000000000000000000) (= (_4!17 lt!1158) #b00000000000000000000000000000001)))))

(declare-fun b!1488 () Bool)

(assert (=> b!1488 (= e!829 (computeModuloWhile!1 jz!42 q!70 lt!1157 lt!1154 lt!1153))))

(declare-fun b!1489 () Bool)

(assert (=> b!1489 (= e!831 (and (bvsge (select (arr!29 (_2!61 lt!1132)) (bvsub jz!42 #b00000000000000000000000000000001)) #b00000000100000000000000000000000) (or (= lt!1133 #b00000000000000000000000000000000) (= lt!1133 #b00000000000000000000000000000001)) (bvslt lt!1134 (bvsub jz!42 #b00000000000000000000000000000001))))))

(declare-fun d!811 () Bool)

(assert (=> d!811 e!830))

(declare-fun res!1283 () Bool)

(assert (=> d!811 (=> (not res!1283) (not e!830))))

(assert (=> d!811 (= res!1283 (and (or (bvsgt #b00000000000000000000000000000000 (_2!60 lt!1158)) (= (bvand jz!42 #b10000000000000000000000000000000) #b00000000000000000000000000000000) (= (bvand jz!42 #b10000000000000000000000000000000) (bvand (bvsub jz!42 #b00000000000000000000000000000001) #b10000000000000000000000000000000))) (bvsle #b00000000000000000000000000000000 (_2!60 lt!1158)) (bvsle (_2!60 lt!1158) (bvsub jz!42 #b00000000000000000000000000000001))))))

(assert (=> d!811 (= lt!1158 e!829)))

(declare-fun c!306 () Bool)

(assert (=> d!811 (= c!306 (bvslt lt!1157 (bvsub jz!42 #b00000000000000000000000000000001)))))

(assert (=> d!811 (= lt!1157 (bvadd lt!1134 #b00000000000000000000000000000001))))

(declare-fun lt!1160 () (_ BitVec 32))

(assert (=> d!811 (= lt!1153 (ite (and (= lt!1133 #b00000000000000000000000000000000) (not (= lt!1160 #b00000000000000000000000000000000))) #b00000000000000000000000000000001 lt!1133))))

(assert (=> d!811 (= lt!1154 (array!66 (store (arr!29 (_2!61 lt!1132)) lt!1134 (ite (= lt!1133 #b00000000000000000000000000000000) (ite (not (= lt!1160 #b00000000000000000000000000000000)) (bvsub #b00000001000000000000000000000000 lt!1160) #b00000000000000000000000000000000) (bvsub #b00000000111111111111111111111111 lt!1160))) (size!29 (_2!61 lt!1132))))))

(assert (=> d!811 (= lt!1160 (select (arr!29 (_2!61 lt!1132)) lt!1134))))

(assert (=> d!811 e!831))

(declare-fun res!1282 () Bool)

(assert (=> d!811 (=> (not res!1282) (not e!831))))

(assert (=> d!811 (= res!1282 (and (bvsle #b00000000000000000000000000000000 lt!1134) (bvsle lt!1134 (bvsub jz!42 #b00000000000000000000000000000001))))))

(declare-fun lt!1161 () tuple4!36)

(assert (=> d!811 (= lt!1161 e!828)))

(declare-fun c!307 () Bool)

(assert (=> d!811 (= c!307 (bvsgt jz!42 #b00000000000000000000000000000000))))

(assert (=> d!811 (= lt!1156 (select (arr!30 q!70) jz!42))))

(assert (=> d!811 (= lt!1159 (array!66 ((as const (Array (_ BitVec 32) (_ BitVec 32))) #b00000000000000000000000000000000) #b00000000000000000000000000010100))))

(assert (=> d!811 (= (computeModuloWhile!1 jz!42 q!70 lt!1134 (_2!61 lt!1132) lt!1133) lt!1158)))

(assert (= (and d!811 c!307) b!1481))

(assert (= (and d!811 (not c!307)) b!1486))

(assert (= (and d!811 res!1282) b!1483))

(assert (= (and b!1483 res!1286) b!1489))

(assert (= (and d!811 c!306) b!1488))

(assert (= (and d!811 (not c!306)) b!1485))

(assert (= (and d!811 res!1283) b!1480))

(assert (= (and b!1480 res!1285) b!1482))

(assert (= (and b!1482 res!1281) b!1487))

(assert (= (and b!1487 res!1284) b!1484))

(declare-fun m!1797 () Bool)

(assert (=> b!1483 m!1797))

(declare-fun m!1799 () Bool)

(assert (=> d!811 m!1799))

(declare-fun m!1801 () Bool)

(assert (=> d!811 m!1801))

(assert (=> d!811 m!1743))

(declare-fun m!1803 () Bool)

(assert (=> b!1480 m!1803))

(declare-fun m!1805 () Bool)

(assert (=> b!1481 m!1805))

(declare-fun m!1807 () Bool)

(assert (=> b!1482 m!1807))

(assert (=> b!1489 m!1741))

(declare-fun m!1809 () Bool)

(assert (=> b!1488 m!1809))

(assert (=> b!1453 d!811))

(declare-fun d!813 () Bool)

(assert (=> d!813 (= (array_inv!10 q!70) (bvsge (size!30 q!70) #b00000000000000000000000000000000))))

(assert (=> start!625 d!813))

(declare-fun b!1502 () Bool)

(declare-fun res!1295 () Bool)

(declare-fun e!840 () Bool)

(assert (=> b!1502 (=> (not res!1295) (not e!840))))

(assert (=> b!1502 (= res!1295 (iqInv!0 lt!1130))))

(declare-fun b!1503 () Bool)

(declare-fun res!1296 () Bool)

(declare-fun e!838 () Bool)

(assert (=> b!1503 (=> (not res!1296) (not e!838))))

(declare-fun lt!1175 () tuple4!36)

(assert (=> b!1503 (= res!1296 (iqInv!0 (_2!61 lt!1175)))))

(declare-fun b!1504 () Bool)

(declare-fun lt!1173 () (_ BitVec 32))

(declare-fun lt!1174 () (_ FloatingPoint 11 53))

(declare-fun lt!1172 () array!65)

(declare-fun e!839 () tuple4!36)

(assert (=> b!1504 (= e!839 (computeModuloWhile!0 jz!42 q!70 lt!1172 lt!1173 lt!1174))))

(declare-fun b!1505 () Bool)

(assert (=> b!1505 (= e!838 (bvsle (_3!49 lt!1175) #b00000000000000000000000000000000))))

(declare-fun b!1506 () Bool)

(assert (=> b!1506 (= e!840 (bvsgt jz!42 #b00000000000000000000000000000000))))

(declare-fun b!1507 () Bool)

(declare-fun Unit!91 () Unit!83)

(assert (=> b!1507 (= e!839 (tuple4!37 Unit!91 lt!1172 lt!1173 lt!1174))))

(declare-fun d!815 () Bool)

(assert (=> d!815 e!838))

(declare-fun res!1298 () Bool)

(assert (=> d!815 (=> (not res!1298) (not e!838))))

(assert (=> d!815 (= res!1298 (and true true (bvsle #b00000000000000000000000000000000 (_3!49 lt!1175)) (bvsle (_3!49 lt!1175) jz!42) (fp.leq (fp #b0 #b00000000000 #b0000000000000000000000000000000000000000000000000000) (_4!18 lt!1175)) (fp.leq (_4!18 lt!1175) (fp #b0 #b10000110001 #b0100000000000000000000010011111111111111111111111100))))))

(assert (=> d!815 (= lt!1175 e!839)))

(declare-fun c!310 () Bool)

(assert (=> d!815 (= c!310 (bvsgt lt!1173 #b00000000000000000000000000000000))))

(assert (=> d!815 (= lt!1173 (bvsub jz!42 #b00000000000000000000000000000001))))

(declare-fun lt!1176 () (_ FloatingPoint 11 53))

(assert (=> d!815 (= lt!1174 (fp.add roundNearestTiesToEven (select (arr!30 q!70) (bvsub jz!42 #b00000000000000000000000000000001)) lt!1176))))

(assert (=> d!815 (= lt!1172 (array!66 (store (arr!29 lt!1130) (bvsub jz!42 jz!42) (ite (fp.isNaN (fp.sub roundNearestTiesToEven lt!1131 (fp.mul roundNearestTiesToEven (fp #b0 #b10000010111 #b0000000000000000000000000000000000000000000000000000) lt!1176))) #b00000000000000000000000000000000 (ite (fp.gt (fp.sub roundNearestTiesToEven lt!1131 (fp.mul roundNearestTiesToEven (fp #b0 #b10000010111 #b0000000000000000000000000000000000000000000000000000) lt!1176)) ((_ to_fp 11 53) roundTowardZero #b01111111111111111111111111111111)) #b01111111111111111111111111111111 (ite (fp.lt (fp.sub roundNearestTiesToEven lt!1131 (fp.mul roundNearestTiesToEven (fp #b0 #b10000010111 #b0000000000000000000000000000000000000000000000000000) lt!1176)) ((_ to_fp 11 53) roundTowardZero #b10000000000000000000000000000000)) #b10000000000000000000000000000000 ((_ fp.to_sbv 32) roundTowardZero (fp.sub roundNearestTiesToEven lt!1131 (fp.mul roundNearestTiesToEven (fp #b0 #b10000010111 #b0000000000000000000000000000000000000000000000000000) lt!1176))))))) (size!29 lt!1130)))))

(assert (=> d!815 (= lt!1176 ((_ to_fp 11 53) roundNearestTiesToEven (ite (fp.isNaN (fp.mul roundNearestTiesToEven (fp #b0 #b01111100111 #b0000000000000000000000000000000000000000000000000000) lt!1131)) #b00000000000000000000000000000000 (ite (fp.gt (fp.mul roundNearestTiesToEven (fp #b0 #b01111100111 #b0000000000000000000000000000000000000000000000000000) lt!1131) ((_ to_fp 11 53) roundTowardZero #b01111111111111111111111111111111)) #b01111111111111111111111111111111 (ite (fp.lt (fp.mul roundNearestTiesToEven (fp #b0 #b01111100111 #b0000000000000000000000000000000000000000000000000000) lt!1131) ((_ to_fp 11 53) roundTowardZero #b10000000000000000000000000000000)) #b10000000000000000000000000000000 ((_ fp.to_sbv 32) roundTowardZero (fp.mul roundNearestTiesToEven (fp #b0 #b01111100111 #b0000000000000000000000000000000000000000000000000000) lt!1131)))))))))

(assert (=> d!815 e!840))

(declare-fun res!1297 () Bool)

(assert (=> d!815 (=> (not res!1297) (not e!840))))

(assert (=> d!815 (= res!1297 (and (bvsle #b00000000000000000000000000000000 jz!42) (bvsle jz!42 jz!42) (fp.leq (fp #b0 #b00000000000 #b0000000000000000000000000000000000000000000000000000) lt!1131) (fp.leq lt!1131 (fp #b0 #b10000110001 #b0100000000000000000000010011111111111111111111111100))))))

(assert (=> d!815 (= (computeModuloWhile!0 jz!42 q!70 lt!1130 jz!42 lt!1131) lt!1175)))

(assert (= (and d!815 res!1297) b!1502))

(assert (= (and b!1502 res!1295) b!1506))

(assert (= (and d!815 c!310) b!1504))

(assert (= (and d!815 (not c!310)) b!1507))

(assert (= (and d!815 res!1298) b!1503))

(assert (= (and b!1503 res!1296) b!1505))

(declare-fun m!1811 () Bool)

(assert (=> b!1502 m!1811))

(declare-fun m!1813 () Bool)

(assert (=> b!1503 m!1813))

(declare-fun m!1815 () Bool)

(assert (=> b!1504 m!1815))

(declare-fun m!1817 () Bool)

(assert (=> d!815 m!1817))

(declare-fun m!1819 () Bool)

(assert (=> d!815 m!1819))

(assert (=> b!1459 d!815))

(declare-fun d!817 () Bool)

(declare-fun res!1301 () Bool)

(declare-fun e!843 () Bool)

(assert (=> d!817 (=> (not res!1301) (not e!843))))

(assert (=> d!817 (= res!1301 (= (size!30 q!70) #b00000000000000000000000000010100))))

(assert (=> d!817 (= (qInv!0 q!70) e!843)))

(declare-fun b!1510 () Bool)

(declare-fun lambda!49 () Int)

(declare-fun all20!0 (array!67 Int) Bool)

(assert (=> b!1510 (= e!843 (all20!0 q!70 lambda!49))))

(assert (= (and d!817 res!1301) b!1510))

(declare-fun m!1821 () Bool)

(assert (=> b!1510 m!1821))

(assert (=> b!1450 d!817))

(check-sat (not b!1510) (not b!1483) (not b!1502) (not b!1488) (not b!1503) (not b!1480) (not b!1481) (not b!1504))
(check-sat)
